num_offers = 30;
num_halls = 10;
start=[14,51,26,6,29,6,52,1,43,42,17,20,24,62,34,31,47,62,30,56,15,8,9,17,35,22,38,18,2,89];
end=[78,52,77,14,72,80,72,63,48,70,53,57,44,82,57,63,57,67,52,76,72,45,87,28,91,96,45,38,17,98];
price=[5146,193,4672,99,1100,5574,814,3061,395,1864,1731,3693,274,1294,2138,2951,1095,518,1427,1688,2004,1732,3104,914,4716,6258,206,1420,323,614];
requirement=[836,431,479,979,222,384,457,239,961,797,413,565,275,602,474,935,678,390,674,714,217,887,768,684,243,920,879,804,211,696];
capacity=[971,643,590,201,946,712,583,944,984,720];
